
Starting CP-SAT solver v9.15.6755
Parameters: random_seed: 2026074558 max_time_in_seconds: 2500 log_search_progress: true cp_model_presolve: true linearization_level: 2 num_search_workers: 4 cp_model_probing_level: 2 symmetry_level: 2

Initial satisfaction model '': (model_fingerprint: 0xcd12f4c3806b2a9d)
#Variables: 724 (598 primary variables)
  - 724 Booleans in [0,1]
#kBoolAnd: 110 (#enforced: 110) (#literals: 330)
#kBoolOr: 110 (#enforced: 110) (#literals: 220)
#kExactlyOne: 87 (#literals: 261)
#kLinear1: 42 (#enforced: 6)
#kLinear2: 336 (#enforced: 336) (#complex_domain: 110)
#kLinear3: 1'600 (#enforced: 6)
#kLinearN: 1'132 (#enforced: 243) (#terms: 9'111)

Starting presolve at 0.00s
  6.53e-04s  0.00e+00d  [DetectDominanceRelations] 
  8.78e-03s  0.00e+00d  [PresolveToFixPoint] #num_loops=3 #num_dual_strengthening=1 
  3.68e-05s  0.00e+00d  [ExtractEncodingFromLinear] #potential_supersets=91 
  3.02e-04s  0.00e+00d  [DetectDuplicateColumns] 
  1.06e-04s  0.00e+00d  [DetectDuplicateConstraints] #duplicates=14 
[Symmetry] Graph for symmetry has 4'810 nodes and 15'248 arcs.
[Symmetry] Symmetry computation done. time: 0.00124919 dtime: 0.00174962
[SAT presolve] num removable Booleans: 220 / 604
[SAT presolve] num trivial clauses: 0
[SAT presolve] [0s] clauses:2'655 literals:7'268 vars:499 one_side_vars:59 simple_definition:1 singleton_clauses:0
[SAT presolve] [0.00020343s] clauses:2'654 literals:7'261 vars:499 one_side_vars:59 simple_definition:1 singleton_clauses:0
[SAT presolve] [0.000590786s] clauses:2'252 literals:6'628 vars:375 one_side_vars:69 simple_definition:37 singleton_clauses:0
  1.28e-04s  0.00e+00d  [DetectDuplicateConstraintsWithDifferentEnforcements] #without_enforcements=1 
  5.45e-03s  2.31e-03d  [Probe] #probed=1'264 #equiv=3 #new_binary_clauses=909 
  5.01e-04s  5.14e-04d  [MaxClique] Merged 563 constraints with 1'298 literals into 484 constraints with 1'168 literals
  8.44e-04s  0.00e+00d  [DetectDominanceRelations] 
  3.06e-03s  0.00e+00d  [PresolveToFixPoint] #num_loops=1 #num_dual_strengthening=1 
  1.17e-03s  0.00e+00d  [ProcessAtMostOneAndLinear] 
  9.47e-05s  0.00e+00d  [DetectDuplicateConstraints] 
  8.59e-05s  0.00e+00d  [DetectDuplicateConstraintsWithDifferentEnforcements] 
  3.69e-03s  1.06e-04d  [DetectDominatedLinearConstraints] #relevant_constraints=818 #num_inclusions=524 #num_redundant=8 
  1.33e-04s  0.00e+00d  [DetectDifferentVariables] 
  7.31e-04s  8.27e-05d  [ProcessSetPPC] #relevant_constraints=3'038 #num_inclusions=139 
  2.87e-04s  3.36e-05d  [TransformClausesToExactlyOne] #num_amos=558 #num_clauses=1'690 #num_transformed=2 #num_checked=1'690 
  5.00e-05s  0.00e+00d  [DetectEncodedComplexDomains] 
  3.21e-05s  9.00e-08d  [FindAlmostIdenticalLinearConstraints] #num_tested_pairs=1 
  8.99e-04s  1.39e-03d  [FindBigAtMostOneAndLinearOverlap] 
  1.39e-03s  1.15e-03d  [FindBigVerticalLinearOverlap] #blocks=3 #saved_nz=99 
  3.63e-04s  6.40e-04d  [FindBigHorizontalLinearOverlap] #linears=448 
  3.31e-04s  2.71e-05d  [MergeClauses] #num_collisions=16 #num_merges=16 #num_saved_literals=77 
  8.26e-04s  0.00e+00d  [DetectDominanceRelations] 
  3.02e-03s  0.00e+00d  [PresolveToFixPoint] #num_loops=2 #num_dual_strengthening=1 
  8.14e-04s  0.00e+00d  [DetectDominanceRelations] 
  3.00e-03s  0.00e+00d  [PresolveToFixPoint] #num_loops=1 #num_dual_strengthening=1 
  1.58e-04s  0.00e+00d  [DetectDuplicateColumns] 
  8.97e-05s  0.00e+00d  [DetectDuplicateConstraints] 
[Symmetry] Graph for symmetry has 4'341 nodes and 13'568 arcs.
[Symmetry] Symmetry computation done. time: 0.00101294 dtime: 0.00143976
[SAT presolve] num removable Booleans: 93 / 477
[SAT presolve] num trivial clauses: 0
[SAT presolve] [0s] clauses:2'191 literals:6'424 vars:451 one_side_vars:160 simple_definition:55 singleton_clauses:0
[SAT presolve] [0.000215764s] clauses:2'191 literals:6'262 vars:451 one_side_vars:185 simple_definition:73 singleton_clauses:0
[SAT presolve] [0.000328966s] clauses:2'111 literals:6'098 vars:442 one_side_vars:202 simple_definition:49 singleton_clauses:0
  1.59e-04s  0.00e+00d  [DetectDuplicateConstraintsWithDifferentEnforcements] 
  4.82e-03s  2.00e-03d  [Probe] #probed=1'264 #new_binary_clauses=856 
  4.64e-04s  4.26e-04d  [MaxClique] Merged 512 constraints with 1'162 literals into 499 constraints with 1'158 literals
  8.23e-04s  0.00e+00d  [DetectDominanceRelations] 
  2.95e-03s  0.00e+00d  [PresolveToFixPoint] #num_loops=1 #num_dual_strengthening=1 
  1.07e-03s  0.00e+00d  [ProcessAtMostOneAndLinear] 
  9.85e-05s  0.00e+00d  [DetectDuplicateConstraints] 
  9.54e-05s  0.00e+00d  [DetectDuplicateConstraintsWithDifferentEnforcements] 
  9.53e-04s  5.56e-05d  [DetectDominatedLinearConstraints] #relevant_constraints=805 #num_inclusions=297 #num_redundant=1 
  1.19e-04s  0.00e+00d  [DetectDifferentVariables] 
  7.21e-04s  7.12e-05d  [ProcessSetPPC] #relevant_constraints=3'007 #num_inclusions=73 
  2.76e-04s  3.20e-05d  [TransformClausesToExactlyOne] #num_amos=499 #num_clauses=1'649 #num_checked=1'649 
  4.58e-05s  0.00e+00d  [DetectEncodedComplexDomains] 
  3.92e-05s  9.00e-08d  [FindAlmostIdenticalLinearConstraints] #num_tested_pairs=1 
  8.33e-04s  1.19e-03d  [FindBigAtMostOneAndLinearOverlap] 
  1.29e-03s  1.04e-03d  [FindBigVerticalLinearOverlap] 
  3.51e-04s  6.00e-04d  [FindBigHorizontalLinearOverlap] #linears=448 
  3.18e-04s  2.58e-05d  [MergeClauses] #num_collisions=70 #num_merges=70 #num_saved_literals=208 
  8.18e-04s  0.00e+00d  [DetectDominanceRelations] 
  2.96e-03s  0.00e+00d  [PresolveToFixPoint] #num_loops=1 #num_dual_strengthening=1 
  8.08e-04s  0.00e+00d  [DetectDominanceRelations] 
  2.94e-03s  0.00e+00d  [PresolveToFixPoint] #num_loops=1 #num_dual_strengthening=1 
  2.20e-04s  0.00e+00d  [DetectDuplicateColumns] 
  1.05e-04s  0.00e+00d  [DetectDuplicateConstraints] 
[Symmetry] Graph for symmetry has 4'206 nodes and 12'997 arcs.
[Symmetry] Symmetry computation done. time: 0.000919741 dtime: 0.00135233
[SAT presolve] num removable Booleans: 84 / 468
[SAT presolve] num trivial clauses: 0
[SAT presolve] [0s] clauses:2'088 literals:6'044 vars:442 one_side_vars:203 simple_definition:49 singleton_clauses:0
[SAT presolve] [0.000195025s] clauses:2'088 literals:6'044 vars:442 one_side_vars:203 simple_definition:49 singleton_clauses:0
[SAT presolve] [0.00025625s] clauses:2'088 literals:6'044 vars:442 one_side_vars:203 simple_definition:49 singleton_clauses:0
  1.32e-04s  0.00e+00d  [DetectDuplicateConstraintsWithDifferentEnforcements] 
  4.78e-03s  1.99e-03d  [Probe] #probed=1'264 #new_binary_clauses=856 
  4.43e-04s  4.13e-04d  [MaxClique] 
  8.41e-04s  0.00e+00d  [DetectDominanceRelations] 
  3.01e-03s  0.00e+00d  [PresolveToFixPoint] #num_loops=1 #num_dual_strengthening=1 
  1.07e-03s  0.00e+00d  [ProcessAtMostOneAndLinear] 
  1.06e-04s  0.00e+00d  [DetectDuplicateConstraints] 
  1.12e-04s  0.00e+00d  [DetectDuplicateConstraintsWithDifferentEnforcements] 
  7.39e-04s  5.25e-05d  [DetectDominatedLinearConstraints] #relevant_constraints=805 #num_inclusions=282 #num_redundant=1 
  1.25e-04s  0.00e+00d  [DetectDifferentVariables] 
  7.08e-04s  6.92e-05d  [ProcessSetPPC] #relevant_constraints=3'002 #num_inclusions=59 
  2.85e-04s  3.20e-05d  [TransformClausesToExactlyOne] #num_amos=494 #num_clauses=1'649 #num_checked=1'649 
  6.46e-05s  0.00e+00d  [DetectEncodedComplexDomains] 
  4.84e-05s  0.00e+00d  [FindAlmostIdenticalLinearConstraints] 
  8.13e-04s  1.13e-03d  [FindBigAtMostOneAndLinearOverlap] 
  1.26e-03s  9.82e-04d  [FindBigVerticalLinearOverlap] 
  3.51e-04s  5.55e-04d  [FindBigHorizontalLinearOverlap] #linears=448 
  3.18e-04s  2.58e-05d  [MergeClauses] #num_collisions=70 #num_merges=70 #num_saved_literals=208 
  8.32e-04s  0.00e+00d  [DetectDominanceRelations] 
  3.00e-03s  0.00e+00d  [PresolveToFixPoint] #num_loops=1 #num_dual_strengthening=1 
  2.84e-05s  0.00e+00d  [MergeNoOverlap] 
  2.91e-05s  0.00e+00d  [MergeNoOverlap2D] 

Presolve summary:
  - 32 affine relations were detected.
  - rule 'TODO dual: only one blocking constraint?' was applied 859 times.
  - rule 'TODO linear inclusion: superset is equality' was applied 213 times.
  - rule 'affine: new relation' was applied 32 times.
  - rule 'at_most_one: transformed into max clique' was applied 2 times.
  - rule 'bool_or: implications' was applied 80 times.
  - rule 'bool_or: only one literal' was applied 12 times.
  - rule 'bool_or: removed enforcement literal' was applied 557 times.
  - rule 'clauses: transformed into exactly one' was applied 2 times.
  - rule 'deductions: 678 stored' was applied 1 time.
  - rule 'duplicate: merged rhs of linear constraint' was applied 13 times.
  - rule 'duplicate: removed constraint' was applied 14 times.
  - rule 'duplicate: removed enforced constraint' was applied 1 time.
  - rule 'enforcement: false literal' was applied 44 times.
  - rule 'enforcement: true literal' was applied 12 times.
  - rule 'exactly_one: removed literals' was applied 28 times.
  - rule 'exactly_one: satisfied' was applied 13 times.
  - rule 'exactly_one: singleton' was applied 2 times.
  - rule 'exactly_one: size two' was applied 26 times.
  - rule 'incompatible linear: add implication' was applied 126 times.
  - rule 'linear + amo: empty after processing' was applied 5 times.
  - rule 'linear + amo: extracted enforcement literal' was applied 52 times.
  - rule 'linear + amo: trivial linear constraint' was applied 2 times.
  - rule 'linear inclusion: redundant containing constraint' was applied 2 times.
  - rule 'linear inclusion: redundant included constraint' was applied 5 times.
  - rule 'linear inclusion: sparsify superset' was applied 3 times.
  - rule 'linear matrix: common vertical rectangle' was applied 3 times.
  - rule 'linear1: always true' was applied 3 times.
  - rule 'linear1: x in domain' was applied 36 times.
  - rule 'linear2: convert ax + by != cte to clauses' was applied 252 times.
  - rule 'linear2: convert implied ax + by == cte to clauses' was applied 114 times.
  - rule 'linear2: implied ax + by = cte has only one solution' was applied 8 times.
  - rule 'linear: always true' was applied 421 times.
  - rule 'linear: coefficient strengthening by increasing it' was applied 2 times.
  - rule 'linear: empty' was applied 7 times.
  - rule 'linear: enforcement literal in expression' was applied 6 times.
  - rule 'linear: extracted at most one (max)' was applied 1 time.
  - rule 'linear: fixed or dup variables' was applied 883 times.
  - rule 'linear: negative clause' was applied 1'292 times.
  - rule 'linear: negative reified and' was applied 68 times.
  - rule 'linear: never in domain' was applied 5 times.
  - rule 'linear: positive at most one' was applied 44 times.
  - rule 'linear: positive equal one' was applied 1 time.
  - rule 'linear: reduced variable domains' was applied 4 times.
  - rule 'linear: remapped using affine relations' was applied 29 times.
  - rule 'presolve: 92 unused variables removed.' was applied 1 time.
  - rule 'presolve: iteration' was applied 3 times.
  - rule 'probing: bool_or reduced to implication' was applied 47 times.
  - rule 'probing: simplified clauses' was applied 18 times.
  - rule 'setppc: bool_or in at_most_one' was applied 9 times.
  - rule 'setppc: removed dominated constraints' was applied 90 times.
  - rule 'variables: both boolean and its negation fix the same variable' was applied 3 times.
  - rule 'variables: detect half reified value encoding' was applied 6 times.

Presolved satisfaction model '': (model_fingerprint: 0x17abe7e9875bbda9)
#Variables: 468 (399 primary variables)
  - 468 Booleans in [0,1]
#kAtMostOne: 55 (#literals: 248)
#kBoolAnd: 259 (#enforced: 259) (#literals: 698)
#kBoolAndClauses: 70 (#enforced: 70 #multi: 70) (#literals: 348)
#kBoolOr: 1'509 (#literals: 4'610)
#kExactlyOne: 54 (#literals: 217)
#kLinearN: 805 (#enforced: 120) (#terms: 5'570)
[Symmetry] Graph for symmetry has 3'947 nodes and 12'977 arcs.
[Symmetry] Symmetry computation done. time: 0.00079618 dtime: 0.00132297

Preloading model.
#Model   0.09s var:468/468 constraints:2752/2752

Starting search at 0.09s with 4 workers.
3 full problem subsolvers: [default_lp, max_lp, no_lp]
1 first solution subsolver: [fj]
2 interleaved subsolvers: [feasibility_pump, rins/rens]
2 helper subsolvers: [neighborhood_helper, synchronization_agent]

#Model  13.34s var:467/468 constraints:2734/2752
#Model  18.00s var:466/468 constraints:2732/2752
#Model  18.27s var:465/468 constraints:2730/2752
#Model 115.11s var:464/468 constraints:2728/2752
#Model 124.33s var:463/468 constraints:2728/2752
#Model 174.67s var:462/468 constraints:2728/2752
#Model 211.05s var:453/468 constraints:2654/2752
#Model 255.95s var:452/468 constraints:2635/2752
#Model 258.33s var:451/468 constraints:2611/2752
#Model 258.37s var:437/468 constraints:2560/2752
#Model 366.92s var:436/468 constraints:2543/2752
#Model 422.59s var:435/468 constraints:2528/2752
#Model 469.26s var:430/468 constraints:2454/2752
#Model 469.39s var:421/468 constraints:2332/2752
#Model 469.50s var:409/468 constraints:2153/2752
#Done  469.55s no_lp

Task timing                   n [     min,      max]      avg      dev     time         n [     min,      max]      avg      dev    dtime
        'default_lp':         1 [   7.82m,    7.82m]    7.82m   0.00ns    7.82m         2 [  2.28ms,    8.36m]    4.18m    4.18m    8.36m
  'feasibility_pump':      2329 [832.24us, 179.46ms]   1.41ms   3.70ms    3.29s      2328 [264.54us, 161.99ms] 334.01us   3.35ms 777.57ms
                'fj':      1681 [116.49ms, 209.40ms] 138.61ms   8.68ms    3.88m      1681 [100.00ms, 100.13ms] 100.02ms  14.64us    2.80m
            'max_lp':         1 [   7.82m,    7.82m]    7.82m   0.00ns    7.82m         2 [ 72.68ms,   11.16m]    5.58m    5.58m   11.16m
             'no_lp':         1 [   7.82m,    7.82m]    7.82m   0.00ns    7.82m         2 [  1.88ms,   16.22m]    8.11m    8.11m   16.22m
         'rins/rens':      2171 [ 23.20ms, 160.60ms] 107.27ms  36.24ms    3.88m      2171 [360.43us, 100.28ms]  69.99ms  35.84ms    2.53m

Search stats     Bools  Conflicts   Branches  Restarts  BacktrackToRoot  Backtrack   BoolPropag  IntegerPropag
  'default_lp':    468     52'915  3'528'383       362          609'445    825'695   38'271'819     36'981'668
      'max_lp':    468     30'778  4'436'661       137          726'231    919'993   46'896'116     49'089'832
       'no_lp':    468  5'360'544  8'124'146    17'230          255'630  5'613'832  496'641'639     92'415'336

SAT formula      Fixed  Equiv  Total  VarLeft  BinaryClauses  PermanentClauses  TemporaryClauses
  'default_lp':     33      4    468      431          1'824            22'225             4'356
      'max_lp':     33      4    468      431          1'934            19'156             3'763
       'no_lp':    198      4    468      266          2'032            54'028             8'340

SAT stats        ClassicMinim  LitRemoved  LitRemovedBinary   LitLearned  LitForgotten   Subsumed
  'default_lp':        43'993     376'187           250'784    1'078'896       456'183     23'126
      'max_lp':        24'412     196'112           121'881      504'156        78'393     14'960
       'no_lp':     4'724'388  69'367'360        28'762'166  117'504'200    91'535'595  1'447'083

Vivification     Clauses  Decisions  LitTrue  Subsumed  LitRemoved  DecisionReused  Conflicts
  'default_lp':  687'962  3'379'963        2     9'789      96'746         212'583        982
      'max_lp':  791'439  4'304'886        1    11'572     114'745         234'355      1'178
       'no_lp':  223'885  1'772'529        1    13'593     190'002          65'261      1'430

Clause deletion    at_true  l_and_not(l)  to_binary  sub_conflict  sub_extra  sub_decisions  sub_eager  sub_vivify  sub_probing  sub_inpro  blocked  eliminated  forgotten    promoted  conflicts
    'default_lp':    6'898           241         39        22'698        150            752        428       9'789        3'340      8'045        0           0     16'480      96'359     52'915
        'max_lp':    6'821           147         18        14'860        101            334        100      11'572        4'302      8'051        0           0      3'379      41'447     30'778
         'no_lp':   33'611           424         41     1'420'237     12'592         58'958     26'846      13'593       12'053     93'914        0           0  3'628'204  12'171'934  5'360'544

Lp stats         Component  Iterations  AddedCuts  OPTIMAL  DUAL_F.  DUAL_U.
  'default_lp':          1   5'896'495     22'960   62'092        0   35'071
      'max_lp':          1   2'772'270     14'319    4'306   12'281    5'184

Lp dimension        Final dimension of first component
  'default_lp':    289 rows, 339 columns, 2501 entries
      'max_lp':  1893 rows, 468 columns, 50142 entries

Lp debug         CutPropag  CutEqPropag  Adjust  Overflow      Bad  BadScaling
  'default_lp':          0           27  35'071         0  572'793           0
      'max_lp':          0          104   5'183         0  322'905           0

Lp pool          Constraints  Updates  Simplif  Merged  Shortened  Split  Strengthened      Cuts/Call
  'default_lp':       10'733    4'136        0       0         34      0             0  22'960/24'240
      'max_lp':       12'399    4'577        0       0         54      0           591  14'319/18'810

Lp Cut           default_lp  max_lp
         CG_FF:         181      47
          CG_K:          76       4
         CG_KL:          90       2
          CG_R:         157      42
        Clique:           -      55
      MIR_1_FF:         165     382
       MIR_1_K:          27       2
      MIR_1_KL:         111       4
       MIR_1_R:         134     105
     MIR_1_RLT:           -   1'856
      MIR_2_FF:         160     184
       MIR_2_K:          38      18
      MIR_2_KL:         101       7
       MIR_2_R:         164      98
      MIR_3_FF:         101      43
       MIR_3_K:          18       3
      MIR_3_KL:          36       3
       MIR_3_R:          76      49
      MIR_4_FF:          18      20
       MIR_4_K:           4       3
      MIR_4_KL:          12       -
       MIR_4_R:          24      30
      MIR_5_FF:          15       4
       MIR_5_K:           4       2
      MIR_5_KL:           3       1
       MIR_5_R:          19      31
      MIR_6_FF:           4       3
      MIR_6_KL:           1       -
       MIR_6_R:          11      19
  ZERO_HALF_FF:          81     215
   ZERO_HALF_K:           9       1
  ZERO_HALF_KL:          22       4
   ZERO_HALF_R:      21'098  11'082

LNS stats       Improv/Calls  Closed  Difficulty  TimeLimit
  'rins/rens':     2171/2171     50%    7.56e-01       0.10

LS stats                                    Batches  Restarts/Perturbs   LinMoves   GenMoves  CompoundMoves  Bactracks  WeightUpdates  ScoreComputed
                             'fj_restart':       67                 23  1'948'008          0              0          0      1'829'522         25'433
                    'fj_restart_compound':      108                 31          0  1'218'023         78'742    569'596          2'641     19'222'369
                'fj_restart_compound_obj':       65                 27          0    708'658         56'446    326'053          1'475     11'584'162
            'fj_restart_compound_perturb':       77                 30          0    840'040         63'680    388'138          1'770     13'735'021
        'fj_restart_compound_perturb_obj':      170                 30          0  1'959'104         94'276    932'349          4'760     30'458'667
                       'fj_restart_decay':       73                 33  2'390'540          0              0          0        107'070        124'180
              'fj_restart_decay_compound':      107                 32          0  1'326'815        211'282    557'713          1'462     19'327'449
          'fj_restart_decay_compound_obj':      179                 36          0  2'265'541        371'066    947'126          2'522     32'315'282
      'fj_restart_decay_compound_perturb':       77                 24          0    934'001        152'617    390'629          1'063     13'951'577
  'fj_restart_decay_compound_perturb_obj':      136                 34          0  1'696'917        274'898    710'879          1'918     24'527'812
                   'fj_restart_decay_obj':       98                 40  3'220'029          0              0          0        143'516        167'637
               'fj_restart_decay_perturb':      109                 30  3'578'650          0              0          0        159'489        189'878
           'fj_restart_decay_perturb_obj':       76                 22  2'498'439          0              0          0        111'152        131'289
                         'fj_restart_obj':       94                 26  2'648'701          0              0          0      2'636'057         33'421
                     'fj_restart_perturb':       79                 27  2'167'505          0              0          0      2'155'519         30'114
                 'fj_restart_perturb_obj':      166                 33  4'685'884          0              0          0      4'534'184         57'627

Solution repositories    Added  Queried  Synchro
    'alternative_path':      0        0        0
      'best_solutions':      0        0        0
   'fj solution hints':    470        0      470
        'lp solutions':    186    2'171      180
                'pump':      0        0

Improving bounds shared    Num  Sym
            'default_lp':   20    0
                'max_lp':   11    0
                 'no_lp':   73    0

Clauses shared    #Exported  #Imported  #BinaryRead  #BinaryTotal
   'default_lp':      2'334     41'694          187           340
       'max_lp':      2'711     41'961          226           340
        'no_lp':     42'966      4'644          340           340

LRAT_status: NA
CpSolverResponse summary:
status: INFEASIBLE
objective: NA
best_bound: NA
integers: 339
booleans: 468
conflicts: 5360544
branches: 8124146
propagations: 496641639
integer_propagations: 92415336
restarts: 17230
lp_iterations: 0
walltime: 469.566
usertime: 469.566
deterministic_time: 2464.75
gap_integral: 0

{
  "board_size": 22,
  "parity_proved": 0,
  "target": 34,
  "child_id": 2458,
  "child_count": 2640,
  "partition": "unknown_pair_x_diag_plus_twos_x_diag_minus_twos",
  "build_seconds": 0.07641077041625977,
  "workers": 4,
  "requested_seed": 2026074558,
  "effective_seed": 2026074558,
  "main_diagonal_pair": [
    6,
    13
  ],
  "pair_index": 102,
  "diag_plus_twos": 17,
  "diag_minus_twos": 16,
  "pair_excess": 25,
  "residual_certificate_slack": 87,
  "analytic_minimum_line_defect": 0,
  "analytic_defect_details": {
    "row_costs": {
      "12": 6,
      "13": 3,
      "14": 0,
      "15": 0,
      "16": 0,
      "17": 0
    },
    "column_costs": {
      "12": 6,
      "13": 3,
      "14": 0,
      "15": 0,
      "16": 0,
      "17": 0
    },
    "plus_cost": 0,
    "minus_cost": 0,
    "row_column_minimum": 0
  },
  "maximal_line_constraints": 2455,
  "analytic_infeasible": false,
  "allowed_points": 242,
  "status": "INFEASIBLE",
  "proof_method": "cp_sat_all_lines_with_certificate_profile_cuts",
  "elapsed_seconds": 469.5680103302002,
  "branches": 8124146,
  "conflicts": 5360544
}
